p cnf 200 1110
-101 -77 0
-101 82 0
-101 76 0
-101 61 0
-101 -44 0
-101 5 0
-101 -28 0
-101 1 0
-101 69 0
-101 -86 0
101 77 -82 -76 -61 44 -5 28 -1 -69 86 0
-102 -10 0
-102 67 0
-102 39 0
-102 13 0
-102 34 0
-102 61 0
-102 -100 0
-102 45 0
-102 25 0
-102 -96 0
102 10 -67 -39 -13 -34 -61 100 -45 -25 96 0
-103 -58 0
-103 -1 0
-103 36 0
-103 -18 0
-103 -38 0
-103 -92 0
-103 -17 0
-103 -99 0
-103 3 0
-103 33 0
103 58 1 -36 18 38 92 17 99 -3 -33 0
-104 -33 0
-104 68 0
-104 83 0
-104 -75 0
-104 -42 0
-104 -30 0
-104 82 0
-104 6 0
-104 74 0
-104 -44 0
104 33 -68 -83 75 42 30 -82 -6 -74 44 0
-105 100 0
-105 43 0
-105 -30 0
-105 -29 0
-105 -7 0
-105 3 0
-105 92 0
-105 -21 0
-105 58 0
-105 41 0
105 -100 -43 30 29 7 -3 -92 21 -58 -41 0
-106 64 0
-106 -68 0
-106 -22 0
-106 63 0
-106 -78 0
-106 95 0
-106 -88 0
-106 -52 0
-106 -94 0
-106 -37 0
106 -64 68 22 -63 78 -95 88 52 94 37 0
-107 93 0
-107 -36 0
-107 -50 0
-107 -62 0
-107 -33 0
-107 61 0
-107 3 0
-107 -82 0
-107 -60 0
-107 -44 0
107 -93 36 50 62 33 -61 -3 82 60 44 0
-108 7 0
-108 59 0
-108 3 0
-108 86 0
-108 -68 0
-108 -66 0
-108 67 0
-108 -83 0
-108 91 0
-108 21 0
108 -7 -59 -3 -86 68 66 -67 83 -91 -21 0
-109 68 0
-109 -69 0
-109 -50 0
-109 48 0
-109 -51 0
-109 -97 0
-109 -34 0
-109 11 0
-109 -3 0
-109 -85 0
109 -68 69 50 -48 51 97 34 -11 3 85 0
-110 -81 0
-110 65 0
-110 -79 0
-110 -28 0
-110 -48 0
-110 71 0
-110 -87 0
-110 1 0
-110 -41 0
-110 21 0
110 81 -65 79 28 48 -71 87 -1 41 -21 0
101 102 103 104 105 106 107 108 109 110 0
-111 -21 0
-111 98 0
-111 -58 0
-111 -30 0
-111 -37 0
-111 32 0
-111 28 0
-111 -5 0
-111 20 0
-111 -68 0
111 21 -98 58 30 37 -32 -28 5 -20 68 0
-112 -45 0
-112 39 0
-112 -41 0
-112 -40 0
-112 -21 0
-112 -25 0
-112 27 0
-112 89 0
-112 -68 0
-112 46 0
112 45 -39 41 40 21 25 -27 -89 68 -46 0
-113 -94 0
-113 -100 0
-113 41 0
-113 -16 0
-113 -40 0
-113 54 0
-113 25 0
-113 61 0
-113 77 0
-113 -8 0
113 94 100 -41 16 40 -54 -25 -61 -77 8 0
-114 33 0
-114 94 0
-114 -61 0
-114 84 0
-114 -15 0
-114 7 0
-114 -69 0
-114 -81 0
-114 37 0
-114 -56 0
114 -33 -94 61 -84 15 -7 69 81 -37 56 0
-115 -5 0
-115 -50 0
-115 63 0
-115 9 0
-115 59 0
-115 -38 0
-115 37 0
-115 -90 0
-115 -11 0
-115 -45 0
115 5 50 -63 -9 -59 38 -37 90 11 45 0
-116 -22 0
-116 -43 0
-116 -97 0
-116 -50 0
-116 -89 0
-116 17 0
-116 -61 0
-116 82 0
-116 -48 0
-116 90 0
116 22 43 97 50 89 -17 61 -82 48 -90 0
-117 5 0
-117 99 0
-117 48 0
-117 -57 0
-117 -13 0
-117 -62 0
-117 -9 0
-117 -27 0
-117 73 0
-117 7 0
117 -5 -99 -48 57 13 62 9 27 -73 -7 0
-118 44 0
-118 -34 0
-118 11 0
-118 20 0
-118 71 0
-118 94 0
-118 18 0
-118 82 0
-118 22 0
-118 -10 0
118 -44 34 -11 -20 -71 -94 -18 -82 -22 10 0
-119 -87 0
-119 -50 0
-119 22 0
-119 -95 0
-119 31 0
-119 49 0
-119 -64 0
-119 -77 0
-119 -30 0
-119 -96 0
119 87 50 -22 95 -31 -49 64 77 30 96 0
-120 77 0
-120 -31 0
-120 -38 0
-120 67 0
-120 -16 0
-120 66 0
-120 29 0
-120 -65 0
-120 -30 0
-120 22 0
120 -77 31 38 -67 16 -66 -29 65 30 -22 0
111 112 113 114 115 116 117 118 119 120 0
-121 -38 0
-121 65 0
-121 99 0
-121 72 0
-121 82 0
-121 52 0
-121 -13 0
-121 98 0
-121 -4 0
-121 73 0
121 38 -65 -99 -72 -82 -52 13 -98 4 -73 0
-122 47 0
-122 37 0
-122 58 0
-122 74 0
-122 -9 0
-122 21 0
-122 22 0
-122 7 0
-122 83 0
-122 -6 0
122 -47 -37 -58 -74 9 -21 -22 -7 -83 6 0
-123 100 0
-123 58 0
-123 -75 0
-123 92 0
-123 67 0
-123 -52 0
-123 -30 0
-123 32 0
-123 59 0
-123 -45 0
123 -100 -58 75 -92 -67 52 30 -32 -59 45 0
-124 6 0
-124 -90 0
-124 -21 0
-124 83 0
-124 57 0
-124 45 0
-124 86 0
-124 -47 0
-124 32 0
-124 -10 0
124 -6 90 21 -83 -57 -45 -86 47 -32 10 0
-125 -25 0
-125 -58 0
-125 12 0
-125 -72 0
-125 -97 0
-125 52 0
-125 -57 0
-125 -92 0
-125 -17 0
-125 88 0
125 25 58 -12 72 97 -52 57 92 17 -88 0
-126 77 0
-126 -21 0
-126 -98 0
-126 41 0
-126 69 0
-126 -45 0
-126 28 0
-126 31 0
-126 40 0
-126 99 0
126 -77 21 98 -41 -69 45 -28 -31 -40 -99 0
-127 -45 0
-127 -47 0
-127 -21 0
-127 23 0
-127 -99 0
-127 30 0
-127 40 0
-127 56 0
-127 -69 0
-127 -38 0
127 45 47 21 -23 99 -30 -40 -56 69 38 0
-128 17 0
-128 88 0
-128 -55 0
-128 -31 0
-128 -63 0
-128 -74 0
-128 -49 0
-128 59 0
-128 82 0
-128 -90 0
128 -17 -88 55 31 63 74 49 -59 -82 90 0
-129 56 0
-129 -65 0
-129 14 0
-129 -80 0
-129 12 0
-129 18 0
-129 25 0
-129 82 0
-129 -62 0
-129 74 0
129 -56 65 -14 80 -12 -18 -25 -82 62 -74 0
-130 36 0
-130 9 0
-130 -98 0
-130 59 0
-130 49 0
-130 -75 0
-130 -38 0
-130 -78 0
-130 -90 0
-130 99 0
130 -36 -9 98 -59 -49 75 38 78 90 -99 0
121 122 123 124 125 126 127 128 129 130 0
-131 -92 0
-131 -2 0
-131 63 0
-131 -33 0
-131 -55 0
-131 8 0
-131 53 0
-131 -66 0
-131 61 0
-131 -59 0
131 92 2 -63 33 55 -8 -53 66 -61 59 0
-132 57 0
-132 -83 0
-132 47 0
-132 52 0
-132 24 0
-132 -72 0
-132 97 0
-132 -56 0
-132 -64 0
-132 -20 0
132 -57 83 -47 -52 -24 72 -97 56 64 20 0
-133 93 0
-133 -37 0
-133 84 0
-133 -97 0
-133 82 0
-133 67 0
-133 -63 0
-133 -14 0
-133 -73 0
-133 20 0
133 -93 37 -84 97 -82 -67 63 14 73 -20 0
-134 68 0
-134 -72 0
-134 3 0
-134 16 0
-134 -52 0
-134 -73 0
-134 -21 0
-134 -13 0
-134 -10 0
-134 39 0
134 -68 72 -3 -16 52 73 21 13 10 -39 0
-135 -95 0
-135 -59 0
-135 61 0
-135 -93 0
-135 -17 0
-135 12 0
-135 -73 0
-135 -32 0
-135 44 0
-135 -45 0
135 95 59 -61 93 17 -12 73 32 -44 45 0
-136 -71 0
-136 31 0
-136 41 0
-136 2 0
-136 -83 0
-136 -91 0
-136 76 0
-136 62 0
-136 -32 0
-136 72 0
136 71 -31 -41 -2 83 91 -76 -62 32 -72 0
-137 -50 0
-137 -61 0
-137 -4 0
-137 -2 0
-137 95 0
-137 -67 0
-137 80 0
-137 -19 0
-137 -100 0
-137 43 0
137 50 61 4 2 -95 67 -80 19 100 -43 0
-138 49 0
-138 39 0
-138 33 0
-138 9 0
-138 92 0
-138 -34 0
-138 48 0
-138 89 0
-138 -73 0
-138 8 0
138 -49 -39 -33 -9 -92 34 -48 -89 73 -8 0
-139 -79 0
-139 19 0
-139 67 0
-139 -81 0
-139 -78 0
-139 9 0
-139 1 0
-139 13 0
-139 10 0
-139 46 0
139 79 -19 -67 81 78 -9 -1 -13 -10 -46 0
-140 44 0
-140 -21 0
-140 -70 0
-140 -2 0
-140 79 0
-140 59 0
-140 -62 0
-140 68 0
-140 73 0
-140 -61 0
140 -44 21 70 2 -79 -59 62 -68 -73 61 0
131 132 133 134 135 136 137 138 139 140 0
-141 33 0
-141 27 0
-141 64 0
-141 48 0
-141 78 0
-141 -6 0
-141 -71 0
-141 -77 0
-141 12 0
-141 90 0
141 -33 -27 -64 -48 -78 6 71 77 -12 -90 0
-142 -56 0
-142 44 0
-142 -10 0
-142 -79 0
-142 38 0
-142 -68 0
-142 46 0
-142 -20 0
-142 -65 0
-142 -66 0
142 56 -44 10 79 -38 68 -46 20 65 66 0
-143 55 0
-143 4 0
-143 72 0
-143 14 0
-143 -51 0
-143 45 0
-143 -87 0
-143 63 0
-143 -17 0
-143 80 0
143 -55 -4 -72 -14 51 -45 87 -63 17 -80 0
-144 -25 0
-144 63 0
-144 -23 0
-144 75 0
-144 -91 0
-144 -16 0
-144 5 0
-144 -94 0
-144 -42 0
-144 -31 0
144 25 -63 23 -75 91 16 -5 94 42 31 0
-145 -56 0
-145 -14 0
-145 -77 0
-145 -96 0
-145 31 0
-145 -48 0
-145 32 0
-145 84 0
-145 -5 0
-145 -38 0
145 56 14 77 96 -31 48 -32 -84 5 38 0
-146 65 0
-146 29 0
-146 -79 0
-146 64 0
-146 -6 0
-146 -57 0
-146 -43 0
-146 -48 0
-146 -21 0
-146 95 0
146 -65 -29 79 -64 6 57 43 48 21 -95 0
-147 100 0
-147 -74 0
-147 2 0
-147 -16 0
-147 30 0
-147 -76 0
-147 -32 0
-147 14 0
-147 11 0
-147 -22 0
147 -100 74 -2 16 -30 76 32 -14 -11 22 0
-148 20 0
-148 76 0
-148 95 0
-148 -83 0
-148 -87 0
-148 100 0
-148 52 0
-148 86 0
-148 -80 0
-148 -67 0
148 -20 -76 -95 83 87 -100 -52 -86 80 67 0
-149 -99 0
-149 85 0
-149 91 0
-149 67 0
-149 -72 0
-149 69 0
-149 71 0
-149 -64 0
-149 -6 0
-149 39 0
149 99 -85 -91 -67 72 -69 -71 64 6 -39 0
-150 80 0
-150 10 0
-150 -47 0
-150 52 0
-150 50 0
-150 -4 0
-150 21 0
-150 -86 0
-150 27 0
-150 40 0
150 -80 -10 47 -52 -50 4 -21 86 -27 -40 0
141 142 143 144 145 146 147 148 149 150 0
-151 34 0
-151 61 0
-151 -31 0
-151 -66 0
-151 -76 0
-151 70 0
-151 -12 0
-151 94 0
-151 81 0
-151 -30 0
151 -34 -61 31 66 76 -70 12 -94 -81 30 0
-152 96 0
-152 57 0
-152 42 0
-152 7 0
-152 46 0
-152 -34 0
-152 -98 0
-152 -29 0
-152 -78 0
-152 -94 0
152 -96 -57 -42 -7 -46 34 98 29 78 94 0
-153 -68 0
-153 28 0
-153 30 0
-153 -1 0
-153 -15 0
-153 -73 0
-153 8 0
-153 -82 0
-153 72 0
-153 13 0
153 68 -28 -30 1 15 73 -8 82 -72 -13 0
-154 38 0
-154 -27 0
-154 99 0
-154 -49 0
-154 -33 0
-154 -30 0
-154 -37 0
-154 -86 0
-154 -50 0
-154 -20 0
154 -38 27 -99 49 33 30 37 86 50 20 0
-155 -15 0
-155 -10 0
-155 43 0
-155 -17 0
-155 53 0
-155 -32 0
-155 -82 0
-155 70 0
-155 -11 0
-155 68 0
155 15 10 -43 17 -53 32 82 -70 11 -68 0
-156 36 0
-156 -89 0
-156 7 0
-156 96 0
-156 -23 0
-156 12 0
-156 -9 0
-156 28 0
-156 76 0
-156 -6 0
156 -36 89 -7 -96 23 -12 9 -28 -76 6 0
-157 -33 0
-157 18 0
-157 -42 0
-157 12 0
-157 -76 0
-157 -10 0
-157 -24 0
-157 77 0
-157 38 0
-157 99 0
157 33 -18 42 -12 76 10 24 -77 -38 -99 0
-158 -90 0
-158 -73 0
-158 -97 0
-158 75 0
-158 -44 0
-158 -57 0
-158 -76 0
-158 15 0
-158 -33 0
-158 37 0
158 90 73 97 -75 44 57 76 -15 33 -37 0
-159 -92 0
-159 84 0
-159 -89 0
-159 -20 0
-159 -38 0
-159 -6 0
-159 90 0
-159 -3 0
-159 -51 0
-159 4 0
159 92 -84 89 20 38 6 -90 3 51 -4 0
-160 -14 0
-160 58 0
-160 -26 0
-160 -97 0
-160 79 0
-160 89 0
-160 93 0
-160 88 0
-160 -54 0
-160 7 0
160 14 -58 26 97 -79 -89 -93 -88 54 -7 0
151 152 153 154 155 156 157 158 159 160 0
-161 34 0
-161 -28 0
-161 -22 0
-161 84 0
-161 -52 0
-161 -24 0
-161 -68 0
-161 -21 0
-161 30 0
-161 98 0
161 -34 28 22 -84 52 24 68 21 -30 -98 0
-162 34 0
-162 27 0
-162 55 0
-162 94 0
-162 52 0
-162 -14 0
-162 -89 0
-162 39 0
-162 -20 0
-162 76 0
162 -34 -27 -55 -94 -52 14 89 -39 20 -76 0
-163 -56 0
-163 -11 0
-163 -100 0
-163 -14 0
-163 -92 0
-163 -6 0
-163 -40 0
-163 -5 0
-163 -74 0
-163 -79 0
163 56 11 100 14 92 6 40 5 74 79 0
-164 35 0
-164 -15 0
-164 51 0
-164 17 0
-164 87 0
-164 98 0
-164 43 0
-164 -70 0
-164 -23 0
-164 -62 0
164 -35 15 -51 -17 -87 -98 -43 70 23 62 0
-165 -67 0
-165 -74 0
-165 -92 0
-165 96 0
-165 55 0
-165 9 0
-165 -69 0
-165 24 0
-165 5 0
-165 -36 0
165 67 74 92 -96 -55 -9 69 -24 -5 36 0
-166 -80 0
-166 -23 0
-166 71 0
-166 -76 0
-166 4 0
-166 98 0
-166 -36 0
-166 -55 0
-166 -89 0
-166 -24 0
166 80 23 -71 76 -4 -98 36 55 89 24 0
-167 -23 0
-167 44 0
-167 33 0
-167 -92 0
-167 -93 0
-167 6 0
-167 74 0
-167 34 0
-167 -59 0
-167 -85 0
167 23 -44 -33 92 93 -6 -74 -34 59 85 0
-168 -40 0
-168 -6 0
-168 33 0
-168 36 0
-168 39 0
-168 1 0
-168 -76 0
-168 -16 0
-168 95 0
-168 -21 0
168 40 6 -33 -36 -39 -1 76 16 -95 21 0
-169 53 0
-169 51 0
-169 67 0
-169 81 0
-169 -59 0
-169 94 0
-169 66 0
-169 22 0
-169 20 0
-169 -33 0
169 -53 -51 -67 -81 59 -94 -66 -22 -20 33 0
-170 -84 0
-170 70 0
-170 99 0
-170 -62 0
-170 -48 0
-170 36 0
-170 35 0
-170 82 0
-170 -7 0
-170 78 0
170 84 -70 -99 62 48 -36 -35 -82 7 -78 0
161 162 163 164 165 166 167 168 169 170 0
-171 -86 0
-171 -79 0
-171 8 0
-171 -20 0
-171 87 0
-171 -98 0
-171 -78 0
-171 29 0
-171 -85 0
-171 91 0
171 86 79 -8 20 -87 98 78 -29 85 -91 0
-172 28 0
-172 50 0
-172 70 0
-172 -25 0
-172 -93 0
-172 -8 0
-172 -1 0
-172 60 0
-172 -92 0
-172 -65 0
172 -28 -50 -70 25 93 8 1 -60 92 65 0
-173 72 0
-173 50 0
-173 -73 0
-173 87 0
-173 15 0
-173 83 0
-173 55 0
-173 -53 0
-173 -10 0
-173 -66 0
173 -72 -50 73 -87 -15 -83 -55 53 10 66 0
-174 -3 0
-174 -25 0
-174 -6 0
-174 85 0
-174 39 0
-174 -44 0
-174 -20 0
-174 45 0
-174 -43 0
-174 16 0
174 3 25 6 -85 -39 44 20 -45 43 -16 0
-175 -76 0
-175 11 0
-175 -71 0
-175 93 0
-175 15 0
-175 -47 0
-175 -78 0
-175 67 0
-175 65 0
-175 -60 0
175 76 -11 71 -93 -15 47 78 -67 -65 60 0
-176 -100 0
-176 -5 0
-176 -52 0
-176 -9 0
-176 36 0
-176 32 0
-176 -6 0
-176 2 0
-176 -87 0
-176 -76 0
176 100 5 52 9 -36 -32 6 -2 87 76 0
-177 70 0
-177 -48 0
-177 -47 0
-177 -5 0
-177 -38 0
-177 92 0
-177 -40 0
-177 39 0
-177 42 0
-177 68 0
177 -70 48 47 5 38 -92 40 -39 -42 -68 0
-178 26 0
-178 -23 0
-178 12 0
-178 4 0
-178 96 0
-178 51 0
-178 -73 0
-178 46 0
-178 -25 0
-178 53 0
178 -26 23 -12 -4 -96 -51 73 -46 25 -53 0
-179 14 0
-179 29 0
-179 3 0
-179 63 0
-179 11 0
-179 82 0
-179 -78 0
-179 16 0
-179 -17 0
-179 -77 0
179 -14 -29 -3 -63 -11 -82 78 -16 17 77 0
-180 -93 0
-180 85 0
-180 65 0
-180 -68 0
-180 -13 0
-180 -77 0
-180 99 0
-180 92 0
-180 12 0
-180 -69 0
180 93 -85 -65 68 13 77 -99 -92 -12 69 0
171 172 173 174 175 176 177 178 179 180 0
-181 47 0
-181 -42 0
-181 -33 0
-181 -66 0
-181 -14 0
-181 -71 0
-181 -75 0
-181 -1 0
-181 7 0
-181 -78 0
181 -47 42 33 66 14 71 75 1 -7 78 0
-182 100 0
-182 74 0
-182 -65 0
-182 97 0
-182 75 0
-182 -70 0
-182 -28 0
-182 32 0
-182 25 0
-182 90 0
182 -100 -74 65 -97 -75 70 28 -32 -25 -90 0
-183 -76 0
-183 -69 0
-183 20 0
-183 -49 0
-183 85 0
-183 4 0
-183 97 0
-183 63 0
-183 17 0
-183 -27 0
183 76 69 -20 49 -85 -4 -97 -63 -17 27 0
-184 -86 0
-184 -9 0
-184 96 0
-184 -67 0
-184 -5 0
-184 -21 0
-184 -91 0
-184 -88 0
-184 -90 0
-184 98 0
184 86 9 -96 67 5 21 91 88 90 -98 0
-185 57 0
-185 -64 0
-185 93 0
-185 50 0
-185 1 0
-185 -79 0
-185 77 0
-185 21 0
-185 65 0
-185 80 0
185 -57 64 -93 -50 -1 79 -77 -21 -65 -80 0
-186 -17 0
-186 16 0
-186 -19 0
-186 34 0
-186 23 0
-186 -64 0
-186 -11 0
-186 56 0
-186 75 0
-186 94 0
186 17 -16 19 -34 -23 64 11 -56 -75 -94 0
-187 -7 0
-187 -38 0
-187 48 0
-187 9 0
-187 69 0
-187 -81 0
-187 -86 0
-187 83 0
-187 -100 0
-187 10 0
187 7 38 -48 -9 -69 81 86 -83 100 -10 0
-188 97 0
-188 78 0
-188 -7 0
-188 2 0
-188 -64 0
-188 -57 0
-188 -60 0
-188 19 0
-188 -70 0
-188 -23 0
188 -97 -78 7 -2 64 57 60 -19 70 23 0
-189 -78 0
-189 -29 0
-189 -92 0
-189 26 0
-189 6 0
-189 -1 0
-189 -48 0
-189 45 0
-189 73 0
-189 -61 0
189 78 29 92 -26 -6 1 48 -45 -73 61 0
-190 39 0
-190 13 0
-190 -56 0
-190 -50 0
-190 87 0
-190 -9 0
-190 98 0
-190 8 0
-190 94 0
-190 -25 0
190 -39 -13 56 50 -87 9 -98 -8 -94 25 0
181 182 183 184 185 186 187 188 189 190 0
-191 -89 0
-191 67 0
-191 21 0
-191 19 0
-191 -23 0
-191 14 0
-191 -11 0
-191 -50 0
-191 35 0
-191 -57 0
191 89 -67 -21 -19 23 -14 11 50 -35 57 0
-192 -60 0
-192 -80 0
-192 54 0
-192 57 0
-192 -59 0
-192 -91 0
-192 28 0
-192 -11 0
-192 4 0
-192 -1 0
192 60 80 -54 -57 59 91 -28 11 -4 1 0
-193 73 0
-193 -29 0
-193 -54 0
-193 -52 0
-193 99 0
-193 -47 0
-193 25 0
-193 82 0
-193 81 0
-193 -84 0
193 -73 29 54 52 -99 47 -25 -82 -81 84 0
-194 40 0
-194 30 0
-194 -37 0
-194 50 0
-194 -43 0
-194 -85 0
-194 -79 0
-194 -20 0
-194 -22 0
-194 -14 0
194 -40 -30 37 -50 43 85 79 20 22 14 0
-195 39 0
-195 43 0
-195 -59 0
-195 -18 0
-195 -22 0
-195 -51 0
-195 15 0
-195 60 0
-195 50 0
-195 -82 0
195 -39 -43 59 18 22 51 -15 -60 -50 82 0
-196 5 0
-196 84 0
-196 -60 0
-196 -54 0
-196 77 0
-196 48 0
-196 -57 0
-196 -62 0
-196 -98 0
-196 -10 0
196 -5 -84 60 54 -77 -48 57 62 98 10 0
-197 90 0
-197 -72 0
-197 21 0
-197 35 0
-197 57 0
-197 -49 0
-197 -99 0
-197 47 0
-197 -18 0
-197 -55 0
197 -90 72 -21 -35 -57 49 99 -47 18 55 0
-198 -86 0
-198 57 0
-198 19 0
-198 73 0
-198 24 0
-198 59 0
-198 -79 0
-198 -99 0
-198 -97 0
-198 -7 0
198 86 -57 -19 -73 -24 -59 79 99 97 7 0
-199 -56 0
-199 35 0
-199 -21 0
-199 -67 0
-199 -96 0
-199 -11 0
-199 -75 0
-199 -50 0
-199 -71 0
-199 -57 0
199 56 -35 21 67 96 11 75 50 71 57 0
-200 34 0
-200 -24 0
-200 18 0
-200 38 0
-200 -96 0
-200 82 0
-200 1 0
-200 -62 0
-200 -54 0
-200 -95 0
200 -34 24 -18 -38 96 -82 -1 62 54 95 0
191 192 193 194 195 196 197 198 199 200 0
